
Gurobi 7.5.1 (linux64) logging started Thu Mar  5 23:46:55 2020


ERROR 10009: License expired 2020-01-30 - license file '/home/souradeep/gurobi.lic'


Gurobi 7.5.1 (linux64) logging started Thu Mar  5 23:48:21 2020

Academic license - for non-commercial use only
